\Problem name: compact

Minimize
OBJROW: C
Subject To
ord(0,1):  - x(0,0) + x(0,3) >= 10
ord(0,2):  x(0,2) - x(0,3) >= 1
ord(0,3):  x(0,1) - x(0,2) >= 6
ord(1,1):  - x(1,0) + x(1,3) >= 1
ord(1,2):  x(1,1) - x(1,3) >= 7
ord(1,3):  - x(1,1) + x(1,2) >= 5
ord(2,1):  x(2,2) - x(2,3) >= 9
ord(2,2):  x(2,1) - x(2,2) >= 3
ord(2,3):  x(2,0) - x(2,1) >= 7
ord(3,1):  - x(3,1) + x(3,3) >= 7
ord(3,2):  x(3,0) - x(3,3) >= 3
ord(3,3):  - x(3,0) + x(3,2) >= 9
triangle2(0,1,0):  y(0,1,0) + y(1,0,0) = 1
triangle2(0,1,1):  y(0,1,1) + y(1,0,1) = 1
triangle2(0,1,2):  y(0,1,2) + y(1,0,2) = 1
triangle2(0,1,3):  y(0,1,3) + y(1,0,3) = 1
triangle2(0,2,0):  y(0,2,0) + y(2,0,0) = 1
triangle2(0,2,1):  y(0,2,1) + y(2,0,1) = 1
triangle2(0,2,2):  y(0,2,2) + y(2,0,2) = 1
triangle2(0,2,3):  y(0,2,3) + y(2,0,3) = 1
triangle2(0,3,0):  y(0,3,0) + y(3,0,0) = 1
triangle2(0,3,1):  y(0,3,1) + y(3,0,1) = 1
triangle2(0,3,2):  y(0,3,2) + y(3,0,2) = 1
triangle2(0,3,3):  y(0,3,3) + y(3,0,3) = 1
triangle2(1,2,0):  y(1,2,0) + y(2,1,0) = 1
triangle2(1,2,1):  y(1,2,1) + y(2,1,1) = 1
triangle2(1,2,2):  y(1,2,2) + y(2,1,2) = 1
triangle2(1,2,3):  y(1,2,3) + y(2,1,3) = 1
triangle2(1,3,0):  y(1,3,0) + y(3,1,0) = 1
triangle2(1,3,1):  y(1,3,1) + y(3,1,1) = 1
triangle2(1,3,2):  y(1,3,2) + y(3,1,2) = 1
triangle2(1,3,3):  y(1,3,3) + y(3,1,3) = 1
triangle2(2,3,0):  y(2,3,0) + y(3,2,0) = 1
triangle2(2,3,1):  y(2,3,1) + y(3,2,1) = 1
triangle2(2,3,2):  y(2,3,2) + y(3,2,2) = 1
triangle2(2,3,3):  y(2,3,3) + y(3,2,3) = 1
MCLinV(0,1,0):  - x(0,0) + v(0,1,0)p - v(0,1,0)n + x(1,0) = -1
MCLinV(1,0,0):  x(0,0) + v(1,0,0)p - v(1,0,0)n - x(1,0) = -10
MCLin1(0,1,0):  u(0,1,0)p - u(0,1,0)n >= 0
MCLin2(0,1,0):  74 y(1,0,0) + u(0,1,0)p - u(0,1,0)n >= 0
MCLin3(0,1,0):  -69 y(1,0,0) - v(0,1,0)p + v(0,1,0)n + u(0,1,0)p - u(0,1,0)n >= -69
MCLin4(0,1,0):  -69 y(1,0,0) + u(0,1,0)p - u(0,1,0)n <= 0
MCLin5(0,1,0):  74 y(1,0,0) - v(0,1,0)p + v(0,1,0)n + u(0,1,0)p - u(0,1,0)n <= 74
MCLin6(1,0,0):  u(1,0,0)p - u(1,0,0)n >= 0
MCLin7(1,0,0):  80 y(0,1,0) + u(1,0,0)p - u(1,0,0)n >= 0
MCLin8(1,0,0):  -63 y(0,1,0) - v(1,0,0)p + v(1,0,0)n + u(1,0,0)p - u(1,0,0)n >= -63
MCLin9(1,0,0):  -63 y(0,1,0) + u(1,0,0)p - u(1,0,0)n <= 0
MCLin10(1,0,0):  80 y(0,1,0) - v(1,0,0)p + v(1,0,0)n + u(1,0,0)p - u(1,0,0)n <= 80
MCLinV(0,1,1):  - x(0,1) + v(0,1,1)p - v(0,1,1)n + x(1,1) = -5
MCLinV(1,0,1):  x(0,1) + v(1,0,1)p - v(1,0,1)n - x(1,1) = -7
MCLin1(0,1,1):  u(0,1,1)p - u(0,1,1)n >= 0
MCLin2(0,1,1):  69 y(1,0,1) + u(0,1,1)p - u(0,1,1)n >= 0
MCLin3(0,1,1):  -74 y(1,0,1) - v(0,1,1)p + v(0,1,1)n + u(0,1,1)p - u(0,1,1)n >= -74
MCLin4(0,1,1):  -74 y(1,0,1) + u(0,1,1)p - u(0,1,1)n <= 0
MCLin5(0,1,1):  69 y(1,0,1) - v(0,1,1)p + v(0,1,1)n + u(0,1,1)p - u(0,1,1)n <= 69
MCLin6(1,0,1):  u(1,0,1)p - u(1,0,1)n >= 0
MCLin7(1,0,1):  86 y(0,1,1) + u(1,0,1)p - u(1,0,1)n >= 0
MCLin8(1,0,1):  -57 y(0,1,1) - v(1,0,1)p + v(1,0,1)n + u(1,0,1)p - u(1,0,1)n >= -57
MCLin9(1,0,1):  -57 y(0,1,1) + u(1,0,1)p - u(1,0,1)n <= 0
MCLin10(1,0,1):  86 y(0,1,1) - v(1,0,1)p + v(1,0,1)n + u(1,0,1)p - u(1,0,1)n <= 86
MCLinV(0,1,2):  - x(0,2) + v(0,1,2)p - v(0,1,2)n + x(1,2) = -8
MCLinV(1,0,2):  x(0,2) + v(1,0,2)p - v(1,0,2)n - x(1,2) = -6
MCLin1(0,1,2):  u(0,1,2)p - u(0,1,2)n >= 0
MCLin2(0,1,2):  83 y(1,0,2) + u(0,1,2)p - u(0,1,2)n >= 0
MCLin3(0,1,2):  -60 y(1,0,2) - v(0,1,2)p + v(0,1,2)n + u(0,1,2)p - u(0,1,2)n >= -60
MCLin4(0,1,2):  -60 y(1,0,2) + u(0,1,2)p - u(0,1,2)n <= 0
MCLin5(0,1,2):  83 y(1,0,2) - v(0,1,2)p + v(0,1,2)n + u(0,1,2)p - u(0,1,2)n <= 83
MCLin6(1,0,2):  u(1,0,2)p - u(1,0,2)n >= 0
MCLin7(1,0,2):  74 y(0,1,2) + u(1,0,2)p - u(1,0,2)n >= 0
MCLin8(1,0,2):  -69 y(0,1,2) - v(1,0,2)p + v(1,0,2)n + u(1,0,2)p - u(1,0,2)n >= -69
MCLin9(1,0,2):  -69 y(0,1,2) + u(1,0,2)p - u(1,0,2)n <= 0
MCLin10(1,0,2):  74 y(0,1,2) - v(1,0,2)p + v(1,0,2)n + u(1,0,2)p - u(1,0,2)n <= 74
MCLinV(0,1,3):  - x(0,3) + v(0,1,3)p - v(0,1,3)n + x(1,3) = -7
MCLinV(1,0,3):  x(0,3) + v(1,0,3)p - v(1,0,3)n - x(1,3) = -1
MCLin1(0,1,3):  u(0,1,3)p - u(0,1,3)n >= 0
MCLin2(0,1,3):  71 y(1,0,3) + u(0,1,3)p - u(0,1,3)n >= 0
MCLin3(0,1,3):  -72 y(1,0,3) - v(0,1,3)p + v(0,1,3)n + u(0,1,3)p - u(0,1,3)n >= -72
MCLin4(0,1,3):  -72 y(1,0,3) + u(0,1,3)p - u(0,1,3)n <= 0
MCLin5(0,1,3):  71 y(1,0,3) - v(0,1,3)p + v(0,1,3)n + u(0,1,3)p - u(0,1,3)n <= 71
MCLin6(1,0,3):  u(1,0,3)p - u(1,0,3)n >= 0
MCLin7(1,0,3):  80 y(0,1,3) + u(1,0,3)p - u(1,0,3)n >= 0
MCLin8(1,0,3):  -63 y(0,1,3) - v(1,0,3)p + v(1,0,3)n + u(1,0,3)p - u(1,0,3)n >= -63
MCLin9(1,0,3):  -63 y(0,1,3) + u(1,0,3)p - u(1,0,3)n <= 0
MCLin10(1,0,3):  80 y(0,1,3) - v(1,0,3)p + v(1,0,3)n + u(1,0,3)p - u(1,0,3)n <= 80
MCLinV(0,2,0):  - x(0,0) + v(0,2,0)p - v(0,2,0)n + x(2,0) = -1
MCLinV(2,0,0):  x(0,0) + v(2,0,0)p - v(2,0,0)n - x(2,0) = -10
MCLin1(0,2,0):  u(0,2,0)p - u(0,2,0)n >= 0
MCLin2(0,2,0):  94 y(2,0,0) + u(0,2,0)p - u(0,2,0)n >= 0
MCLin3(0,2,0):  -50 y(2,0,0) - v(0,2,0)p + v(0,2,0)n + u(0,2,0)p - u(0,2,0)n >= -50
MCLin4(0,2,0):  -50 y(2,0,0) + u(0,2,0)p - u(0,2,0)n <= 0
MCLin5(0,2,0):  94 y(2,0,0) - v(0,2,0)p + v(0,2,0)n + u(0,2,0)p - u(0,2,0)n <= 94
MCLin6(2,0,0):  u(2,0,0)p - u(2,0,0)n >= 0
MCLin7(2,0,0):  61 y(0,2,0) + u(2,0,0)p - u(2,0,0)n >= 0
MCLin8(2,0,0):  -83 y(0,2,0) - v(2,0,0)p + v(2,0,0)n + u(2,0,0)p - u(2,0,0)n >= -83
MCLin9(2,0,0):  -83 y(0,2,0) + u(2,0,0)p - u(2,0,0)n <= 0
MCLin10(2,0,0):  61 y(0,2,0) - v(2,0,0)p + v(2,0,0)n + u(2,0,0)p - u(2,0,0)n <= 61
MCLinV(0,2,1):  - x(0,1) + v(0,2,1)p - v(0,2,1)n + x(2,1) = -7
MCLinV(2,0,1):  x(0,1) + v(2,0,1)p - v(2,0,1)n - x(2,1) = -7
MCLin1(0,2,1):  u(0,2,1)p - u(0,2,1)n >= 0
MCLin2(0,2,1):  76 y(2,0,1) + u(0,2,1)p - u(0,2,1)n >= 0
MCLin3(0,2,1):  -68 y(2,0,1) - v(0,2,1)p + v(0,2,1)n + u(0,2,1)p - u(0,2,1)n >= -68
MCLin4(0,2,1):  -68 y(2,0,1) + u(0,2,1)p - u(0,2,1)n <= 0
MCLin5(0,2,1):  76 y(2,0,1) - v(0,2,1)p + v(0,2,1)n + u(0,2,1)p - u(0,2,1)n <= 76
MCLin6(2,0,1):  u(2,0,1)p - u(2,0,1)n >= 0
MCLin7(2,0,1):  82 y(0,2,1) + u(2,0,1)p - u(2,0,1)n >= 0
MCLin8(2,0,1):  -62 y(0,2,1) - v(2,0,1)p + v(2,0,1)n + u(2,0,1)p - u(2,0,1)n >= -62
MCLin9(2,0,1):  -62 y(0,2,1) + u(2,0,1)p - u(2,0,1)n <= 0
MCLin10(2,0,1):  82 y(0,2,1) - v(2,0,1)p + v(2,0,1)n + u(2,0,1)p - u(2,0,1)n <= 82
MCLinV(0,2,2):  - x(0,2) + v(0,2,2)p - v(0,2,2)n + x(2,2) = -3
MCLinV(2,0,2):  x(0,2) + v(2,0,2)p - v(2,0,2)n - x(2,2) = -6
MCLin1(0,2,2):  u(0,2,2)p - u(0,2,2)n >= 0
MCLin2(0,2,2):  75 y(2,0,2) + u(0,2,2)p - u(0,2,2)n >= 0
MCLin3(0,2,2):  -69 y(2,0,2) - v(0,2,2)p + v(0,2,2)n + u(0,2,2)p - u(0,2,2)n >= -69
MCLin4(0,2,2):  -69 y(2,0,2) + u(0,2,2)p - u(0,2,2)n <= 0
MCLin5(0,2,2):  75 y(2,0,2) - v(0,2,2)p + v(0,2,2)n + u(0,2,2)p - u(0,2,2)n <= 75
MCLin6(2,0,2):  u(2,0,2)p - u(2,0,2)n >= 0
MCLin7(2,0,2):  78 y(0,2,2) + u(2,0,2)p - u(2,0,2)n >= 0
MCLin8(2,0,2):  -66 y(0,2,2) - v(2,0,2)p + v(2,0,2)n + u(2,0,2)p - u(2,0,2)n >= -66
MCLin9(2,0,2):  -66 y(0,2,2) + u(2,0,2)p - u(2,0,2)n <= 0
MCLin10(2,0,2):  78 y(0,2,2) - v(2,0,2)p + v(2,0,2)n + u(2,0,2)p - u(2,0,2)n <= 78
MCLinV(0,2,3):  - x(0,3) + v(0,2,3)p - v(0,2,3)n + x(2,3) = -9
MCLinV(2,0,3):  x(0,3) + v(2,0,3)p - v(2,0,3)n - x(2,3) = -1
MCLin1(0,2,3):  u(0,2,3)p - u(0,2,3)n >= 0
MCLin2(0,2,3):  73 y(2,0,3) + u(0,2,3)p - u(0,2,3)n >= 0
MCLin3(0,2,3):  -71 y(2,0,3) - v(0,2,3)p + v(0,2,3)n + u(0,2,3)p - u(0,2,3)n >= -71
MCLin4(0,2,3):  -71 y(2,0,3) + u(0,2,3)p - u(0,2,3)n <= 0
MCLin5(0,2,3):  73 y(2,0,3) - v(0,2,3)p + v(0,2,3)n + u(0,2,3)p - u(0,2,3)n <= 73
MCLin6(2,0,3):  u(2,0,3)p - u(2,0,3)n >= 0
MCLin7(2,0,3):  81 y(0,2,3) + u(2,0,3)p - u(2,0,3)n >= 0
MCLin8(2,0,3):  -63 y(0,2,3) - v(2,0,3)p + v(2,0,3)n + u(2,0,3)p - u(2,0,3)n >= -63
MCLin9(2,0,3):  -63 y(0,2,3) + u(2,0,3)p - u(2,0,3)n <= 0
MCLin10(2,0,3):  81 y(0,2,3) - v(2,0,3)p + v(2,0,3)n + u(2,0,3)p - u(2,0,3)n <= 81
MCLinV(0,3,0):  - x(0,0) + v(0,3,0)p - v(0,3,0)n + x(3,0) = -9
MCLinV(3,0,0):  x(0,0) + v(3,0,0)p - v(3,0,0)n - x(3,0) = -10
MCLin1(0,3,0):  u(0,3,0)p - u(0,3,0)n >= 0
MCLin2(0,3,0):  84 y(3,0,0) + u(0,3,0)p - u(0,3,0)n >= 0
MCLin3(0,3,0):  -51 y(3,0,0) - v(0,3,0)p + v(0,3,0)n + u(0,3,0)p - u(0,3,0)n >= -51
MCLin4(0,3,0):  -51 y(3,0,0) + u(0,3,0)p - u(0,3,0)n <= 0
MCLin5(0,3,0):  84 y(3,0,0) - v(0,3,0)p + v(0,3,0)n + u(0,3,0)p - u(0,3,0)n <= 84
MCLin6(3,0,0):  u(3,0,0)p - u(3,0,0)n >= 0
MCLin7(3,0,0):  70 y(0,3,0) + u(3,0,0)p - u(3,0,0)n >= 0
MCLin8(3,0,0):  -65 y(0,3,0) - v(3,0,0)p + v(3,0,0)n + u(3,0,0)p - u(3,0,0)n >= -65
MCLin9(3,0,0):  -65 y(0,3,0) + u(3,0,0)p - u(3,0,0)n <= 0
MCLin10(3,0,0):  70 y(0,3,0) - v(3,0,0)p + v(3,0,0)n + u(3,0,0)p - u(3,0,0)n <= 70
MCLinV(0,3,1):  - x(0,1) + v(0,3,1)p - v(0,3,1)n + x(3,1) = -7
MCLinV(3,0,1):  x(0,1) + v(3,0,1)p - v(3,0,1)n - x(3,1) = -7
MCLin1(0,3,1):  u(0,3,1)p - u(0,3,1)n >= 0
MCLin2(0,3,1):  55 y(3,0,1) + u(0,3,1)p - u(0,3,1)n >= 0
MCLin3(0,3,1):  -80 y(3,0,1) - v(0,3,1)p + v(0,3,1)n + u(0,3,1)p - u(0,3,1)n >= -80
MCLin4(0,3,1):  -80 y(3,0,1) + u(0,3,1)p - u(0,3,1)n <= 0
MCLin5(0,3,1):  55 y(3,0,1) - v(0,3,1)p + v(0,3,1)n + u(0,3,1)p - u(0,3,1)n <= 55
MCLin6(3,0,1):  u(3,0,1)p - u(3,0,1)n >= 0
MCLin7(3,0,1):  94 y(0,3,1) + u(3,0,1)p - u(3,0,1)n >= 0
MCLin8(3,0,1):  -41 y(0,3,1) - v(3,0,1)p + v(3,0,1)n + u(3,0,1)p - u(3,0,1)n >= -41
MCLin9(3,0,1):  -41 y(0,3,1) + u(3,0,1)p - u(3,0,1)n <= 0
MCLin10(3,0,1):  94 y(0,3,1) - v(3,0,1)p + v(3,0,1)n + u(3,0,1)p - u(3,0,1)n <= 94
MCLinV(0,3,2):  - x(0,2) + v(0,3,2)p - v(0,3,2)n + x(3,2) = -10
MCLinV(3,0,2):  x(0,2) + v(3,0,2)p - v(3,0,2)n - x(3,2) = -6
MCLin1(0,3,2):  u(0,3,2)p - u(0,3,2)n >= 0
MCLin2(0,3,2):  83 y(3,0,2) + u(0,3,2)p - u(0,3,2)n >= 0
MCLin3(0,3,2):  -52 y(3,0,2) - v(0,3,2)p + v(0,3,2)n + u(0,3,2)p - u(0,3,2)n >= -52
MCLin4(0,3,2):  -52 y(3,0,2) + u(0,3,2)p - u(0,3,2)n <= 0
MCLin5(0,3,2):  83 y(3,0,2) - v(0,3,2)p + v(0,3,2)n + u(0,3,2)p - u(0,3,2)n <= 83
MCLin6(3,0,2):  u(3,0,2)p - u(3,0,2)n >= 0
MCLin7(3,0,2):  68 y(0,3,2) + u(3,0,2)p - u(3,0,2)n >= 0
MCLin8(3,0,2):  -67 y(0,3,2) - v(3,0,2)p + v(3,0,2)n + u(3,0,2)p - u(3,0,2)n >= -67
MCLin9(3,0,2):  -67 y(0,3,2) + u(3,0,2)p - u(3,0,2)n <= 0
MCLin10(3,0,2):  68 y(0,3,2) - v(3,0,2)p + v(3,0,2)n + u(3,0,2)p - u(3,0,2)n <= 68
MCLinV(0,3,3):  - x(0,3) + v(0,3,3)p - v(0,3,3)n + x(3,3) = -3
MCLinV(3,0,3):  x(0,3) + v(3,0,3)p - v(3,0,3)n - x(3,3) = -1
MCLin1(0,3,3):  u(0,3,3)p - u(0,3,3)n >= 0
MCLin2(0,3,3):  65 y(3,0,3) + u(0,3,3)p - u(0,3,3)n >= 0
MCLin3(0,3,3):  -70 y(3,0,3) - v(0,3,3)p + v(0,3,3)n + u(0,3,3)p - u(0,3,3)n >= -70
MCLin4(0,3,3):  -70 y(3,0,3) + u(0,3,3)p - u(0,3,3)n <= 0
MCLin5(0,3,3):  65 y(3,0,3) - v(0,3,3)p + v(0,3,3)n + u(0,3,3)p - u(0,3,3)n <= 65
MCLin6(3,0,3):  u(3,0,3)p - u(3,0,3)n >= 0
MCLin7(3,0,3):  74 y(0,3,3) + u(3,0,3)p - u(3,0,3)n >= 0
MCLin8(3,0,3):  -61 y(0,3,3) - v(3,0,3)p + v(3,0,3)n + u(3,0,3)p - u(3,0,3)n >= -61
MCLin9(3,0,3):  -61 y(0,3,3) + u(3,0,3)p - u(3,0,3)n <= 0
MCLin10(3,0,3):  74 y(0,3,3) - v(3,0,3)p + v(3,0,3)n + u(3,0,3)p - u(3,0,3)n <= 74
MCLinV(1,2,0):  - x(1,0) + v(1,2,0)p - v(1,2,0)n + x(2,0) = -1
MCLinV(2,1,0):  x(1,0) + v(2,1,0)p - v(2,1,0)n - x(2,0) = -1
MCLin1(1,2,0):  u(1,2,0)p - u(1,2,0)n >= 0
MCLin2(1,2,0):  94 y(2,1,0) + u(1,2,0)p - u(1,2,0)n >= 0
MCLin3(1,2,0):  -53 y(2,1,0) - v(1,2,0)p + v(1,2,0)n + u(1,2,0)p - u(1,2,0)n >= -53
MCLin4(1,2,0):  -53 y(2,1,0) + u(1,2,0)p - u(1,2,0)n <= 0
MCLin5(1,2,0):  94 y(2,1,0) - v(1,2,0)p + v(1,2,0)n + u(1,2,0)p - u(1,2,0)n <= 94
MCLin6(2,1,0):  u(2,1,0)p - u(2,1,0)n >= 0
MCLin7(2,1,0):  55 y(1,2,0) + u(2,1,0)p - u(2,1,0)n >= 0
MCLin8(2,1,0):  -92 y(1,2,0) - v(2,1,0)p + v(2,1,0)n + u(2,1,0)p - u(2,1,0)n >= -92
MCLin9(2,1,0):  -92 y(1,2,0) + u(2,1,0)p - u(2,1,0)n <= 0
MCLin10(2,1,0):  55 y(1,2,0) - v(2,1,0)p + v(2,1,0)n + u(2,1,0)p - u(2,1,0)n <= 55
MCLinV(1,2,1):  - x(1,1) + v(1,2,1)p - v(1,2,1)n + x(2,1) = -7
MCLinV(2,1,1):  x(1,1) + v(2,1,1)p - v(2,1,1)n - x(2,1) = -5
MCLin1(1,2,1):  u(1,2,1)p - u(1,2,1)n >= 0
MCLin2(1,2,1):  85 y(2,1,1) + u(1,2,1)p - u(1,2,1)n >= 0
MCLin3(1,2,1):  -62 y(2,1,1) - v(1,2,1)p + v(1,2,1)n + u(1,2,1)p - u(1,2,1)n >= -62
MCLin4(1,2,1):  -62 y(2,1,1) + u(1,2,1)p - u(1,2,1)n <= 0
MCLin5(1,2,1):  85 y(2,1,1) - v(1,2,1)p + v(1,2,1)n + u(1,2,1)p - u(1,2,1)n <= 85
MCLin6(2,1,1):  u(2,1,1)p - u(2,1,1)n >= 0
MCLin7(2,1,1):  74 y(1,2,1) + u(2,1,1)p - u(2,1,1)n >= 0
MCLin8(2,1,1):  -73 y(1,2,1) - v(2,1,1)p + v(2,1,1)n + u(2,1,1)p - u(2,1,1)n >= -73
MCLin9(2,1,1):  -73 y(1,2,1) + u(2,1,1)p - u(2,1,1)n <= 0
MCLin10(2,1,1):  74 y(1,2,1) - v(2,1,1)p + v(2,1,1)n + u(2,1,1)p - u(2,1,1)n <= 74
MCLinV(1,2,2):  - x(1,2) + v(1,2,2)p - v(1,2,2)n + x(2,2) = -3
MCLinV(2,1,2):  x(1,2) + v(2,1,2)p - v(2,1,2)n - x(2,2) = -8
MCLin1(1,2,2):  u(1,2,2)p - u(1,2,2)n >= 0
MCLin2(1,2,2):  73 y(2,1,2) + u(1,2,2)p - u(1,2,2)n >= 0
MCLin3(1,2,2):  -74 y(2,1,2) - v(1,2,2)p + v(1,2,2)n + u(1,2,2)p - u(1,2,2)n >= -74
MCLin4(1,2,2):  -74 y(2,1,2) + u(1,2,2)p - u(1,2,2)n <= 0
MCLin5(1,2,2):  73 y(2,1,2) - v(1,2,2)p + v(1,2,2)n + u(1,2,2)p - u(1,2,2)n <= 73
MCLin6(2,1,2):  u(2,1,2)p - u(2,1,2)n >= 0
MCLin7(2,1,2):  85 y(1,2,2) + u(2,1,2)p - u(2,1,2)n >= 0
MCLin8(2,1,2):  -62 y(1,2,2) - v(2,1,2)p + v(2,1,2)n + u(2,1,2)p - u(2,1,2)n >= -62
MCLin9(2,1,2):  -62 y(1,2,2) + u(2,1,2)p - u(2,1,2)n <= 0
MCLin10(2,1,2):  85 y(1,2,2) - v(2,1,2)p + v(2,1,2)n + u(2,1,2)p - u(2,1,2)n <= 85
MCLinV(1,2,3):  - x(1,3) + v(1,2,3)p - v(1,2,3)n + x(2,3) = -9
MCLinV(2,1,3):  x(1,3) + v(2,1,3)p - v(2,1,3)n - x(2,3) = -7
MCLin1(1,2,3):  u(1,2,3)p - u(1,2,3)n >= 0
MCLin2(1,2,3):  82 y(2,1,3) + u(1,2,3)p - u(1,2,3)n >= 0
MCLin3(1,2,3):  -65 y(2,1,3) - v(1,2,3)p + v(1,2,3)n + u(1,2,3)p - u(1,2,3)n >= -65
MCLin4(1,2,3):  -65 y(2,1,3) + u(1,2,3)p - u(1,2,3)n <= 0
MCLin5(1,2,3):  82 y(2,1,3) - v(1,2,3)p + v(1,2,3)n + u(1,2,3)p - u(1,2,3)n <= 82
MCLin6(2,1,3):  u(2,1,3)p - u(2,1,3)n >= 0
MCLin7(2,1,3):  81 y(1,2,3) + u(2,1,3)p - u(2,1,3)n >= 0
MCLin8(2,1,3):  -66 y(1,2,3) - v(2,1,3)p + v(2,1,3)n + u(2,1,3)p - u(2,1,3)n >= -66
MCLin9(2,1,3):  -66 y(1,2,3) + u(2,1,3)p - u(2,1,3)n <= 0
MCLin10(2,1,3):  81 y(1,2,3) - v(2,1,3)p + v(2,1,3)n + u(2,1,3)p - u(2,1,3)n <= 81
MCLinV(1,3,0):  - x(1,0) + v(1,3,0)p - v(1,3,0)n + x(3,0) = -9
MCLinV(3,1,0):  x(1,0) + v(3,1,0)p - v(3,1,0)n - x(3,0) = -1
MCLin1(1,3,0):  u(1,3,0)p - u(1,3,0)n >= 0
MCLin2(1,3,0):  84 y(3,1,0) + u(1,3,0)p - u(1,3,0)n >= 0
MCLin3(1,3,0):  -54 y(3,1,0) - v(1,3,0)p + v(1,3,0)n + u(1,3,0)p - u(1,3,0)n >= -54
MCLin4(1,3,0):  -54 y(3,1,0) + u(1,3,0)p - u(1,3,0)n <= 0
MCLin5(1,3,0):  84 y(3,1,0) - v(1,3,0)p + v(1,3,0)n + u(1,3,0)p - u(1,3,0)n <= 84
MCLin6(3,1,0):  u(3,1,0)p - u(3,1,0)n >= 0
MCLin7(3,1,0):  64 y(1,3,0) + u(3,1,0)p - u(3,1,0)n >= 0
MCLin8(3,1,0):  -74 y(1,3,0) - v(3,1,0)p + v(3,1,0)n + u(3,1,0)p - u(3,1,0)n >= -74
MCLin9(3,1,0):  -74 y(1,3,0) + u(3,1,0)p - u(3,1,0)n <= 0
MCLin10(3,1,0):  64 y(1,3,0) - v(3,1,0)p + v(3,1,0)n + u(3,1,0)p - u(3,1,0)n <= 64
MCLinV(1,3,1):  - x(1,1) + v(1,3,1)p - v(1,3,1)n + x(3,1) = -7
MCLinV(3,1,1):  x(1,1) + v(3,1,1)p - v(3,1,1)n - x(3,1) = -5
MCLin1(1,3,1):  u(1,3,1)p - u(1,3,1)n >= 0
MCLin2(1,3,1):  64 y(3,1,1) + u(1,3,1)p - u(1,3,1)n >= 0
MCLin3(1,3,1):  -74 y(3,1,1) - v(1,3,1)p + v(1,3,1)n + u(1,3,1)p - u(1,3,1)n >= -74
MCLin4(1,3,1):  -74 y(3,1,1) + u(1,3,1)p - u(1,3,1)n <= 0
MCLin5(1,3,1):  64 y(3,1,1) - v(1,3,1)p + v(1,3,1)n + u(1,3,1)p - u(1,3,1)n <= 64
MCLin6(3,1,1):  u(3,1,1)p - u(3,1,1)n >= 0
MCLin7(3,1,1):  86 y(1,3,1) + u(3,1,1)p - u(3,1,1)n >= 0
MCLin8(3,1,1):  -52 y(1,3,1) - v(3,1,1)p + v(3,1,1)n + u(3,1,1)p - u(3,1,1)n >= -52
MCLin9(3,1,1):  -52 y(1,3,1) + u(3,1,1)p - u(3,1,1)n <= 0
MCLin10(3,1,1):  86 y(1,3,1) - v(3,1,1)p + v(3,1,1)n + u(3,1,1)p - u(3,1,1)n <= 86
MCLinV(1,3,2):  - x(1,2) + v(1,3,2)p - v(1,3,2)n + x(3,2) = -10
MCLinV(3,1,2):  x(1,2) + v(3,1,2)p - v(3,1,2)n - x(3,2) = -8
MCLin1(1,3,2):  u(1,3,2)p - u(1,3,2)n >= 0
MCLin2(1,3,2):  81 y(3,1,2) + u(1,3,2)p - u(1,3,2)n >= 0
MCLin3(1,3,2):  -57 y(3,1,2) - v(1,3,2)p + v(1,3,2)n + u(1,3,2)p - u(1,3,2)n >= -57
MCLin4(1,3,2):  -57 y(3,1,2) + u(1,3,2)p - u(1,3,2)n <= 0
MCLin5(1,3,2):  81 y(3,1,2) - v(1,3,2)p + v(1,3,2)n + u(1,3,2)p - u(1,3,2)n <= 81
MCLin6(3,1,2):  u(3,1,2)p - u(3,1,2)n >= 0
MCLin7(3,1,2):  75 y(1,3,2) + u(3,1,2)p - u(3,1,2)n >= 0
MCLin8(3,1,2):  -63 y(1,3,2) - v(3,1,2)p + v(3,1,2)n + u(3,1,2)p - u(3,1,2)n >= -63
MCLin9(3,1,2):  -63 y(1,3,2) + u(3,1,2)p - u(3,1,2)n <= 0
MCLin10(3,1,2):  75 y(1,3,2) - v(3,1,2)p + v(3,1,2)n + u(3,1,2)p - u(3,1,2)n <= 75
MCLinV(1,3,3):  - x(1,3) + v(1,3,3)p - v(1,3,3)n + x(3,3) = -3
MCLinV(3,1,3):  x(1,3) + v(3,1,3)p - v(3,1,3)n - x(3,3) = -7
MCLin1(1,3,3):  u(1,3,3)p - u(1,3,3)n >= 0
MCLin2(1,3,3):  74 y(3,1,3) + u(1,3,3)p - u(1,3,3)n >= 0
MCLin3(1,3,3):  -64 y(3,1,3) - v(1,3,3)p + v(1,3,3)n + u(1,3,3)p - u(1,3,3)n >= -64
MCLin4(1,3,3):  -64 y(3,1,3) + u(1,3,3)p - u(1,3,3)n <= 0
MCLin5(1,3,3):  74 y(3,1,3) - v(1,3,3)p + v(1,3,3)n + u(1,3,3)p - u(1,3,3)n <= 74
MCLin6(3,1,3):  u(3,1,3)p - u(3,1,3)n >= 0
MCLin7(3,1,3):  74 y(1,3,3) + u(3,1,3)p - u(3,1,3)n >= 0
MCLin8(3,1,3):  -64 y(1,3,3) - v(3,1,3)p + v(3,1,3)n + u(3,1,3)p - u(3,1,3)n >= -64
MCLin9(3,1,3):  -64 y(1,3,3) + u(3,1,3)p - u(3,1,3)n <= 0
MCLin10(3,1,3):  74 y(1,3,3) - v(3,1,3)p + v(3,1,3)n + u(3,1,3)p - u(3,1,3)n <= 74
MCLinV(2,3,0):  - x(2,0) + v(2,3,0)p - v(2,3,0)n + x(3,0) = -9
MCLinV(3,2,0):  x(2,0) + v(3,2,0)p - v(3,2,0)n - x(3,0) = -1
MCLin1(2,3,0):  u(2,3,0)p - u(2,3,0)n >= 0
MCLin2(2,3,0):  65 y(3,2,0) + u(2,3,0)p - u(2,3,0)n >= 0
MCLin3(2,3,0):  -74 y(3,2,0) - v(2,3,0)p + v(2,3,0)n + u(2,3,0)p - u(2,3,0)n >= -74
MCLin4(2,3,0):  -74 y(3,2,0) + u(2,3,0)p - u(2,3,0)n <= 0
MCLin5(2,3,0):  65 y(3,2,0) - v(2,3,0)p + v(2,3,0)n + u(2,3,0)p - u(2,3,0)n <= 65
MCLin6(3,2,0):  u(3,2,0)p - u(3,2,0)n >= 0
MCLin7(3,2,0):  84 y(2,3,0) + u(3,2,0)p - u(3,2,0)n >= 0
MCLin8(3,2,0):  -55 y(2,3,0) - v(3,2,0)p + v(3,2,0)n + u(3,2,0)p - u(3,2,0)n >= -55
MCLin9(3,2,0):  -55 y(2,3,0) + u(3,2,0)p - u(3,2,0)n <= 0
MCLin10(3,2,0):  84 y(2,3,0) - v(3,2,0)p + v(3,2,0)n + u(3,2,0)p - u(3,2,0)n <= 84
MCLinV(2,3,1):  - x(2,1) + v(2,3,1)p - v(2,3,1)n + x(3,1) = -7
MCLinV(3,2,1):  x(2,1) + v(3,2,1)p - v(3,2,1)n - x(3,1) = -7
MCLin1(2,3,1):  u(2,3,1)p - u(2,3,1)n >= 0
MCLin2(2,3,1):  60 y(3,2,1) + u(2,3,1)p - u(2,3,1)n >= 0
MCLin3(2,3,1):  -79 y(3,2,1) - v(2,3,1)p + v(2,3,1)n + u(2,3,1)p - u(2,3,1)n >= -79
MCLin4(2,3,1):  -79 y(3,2,1) + u(2,3,1)p - u(2,3,1)n <= 0
MCLin5(2,3,1):  60 y(3,2,1) - v(2,3,1)p + v(2,3,1)n + u(2,3,1)p - u(2,3,1)n <= 60
MCLin6(3,2,1):  u(3,2,1)p - u(3,2,1)n >= 0
MCLin7(3,2,1):  93 y(2,3,1) + u(3,2,1)p - u(3,2,1)n >= 0
MCLin8(3,2,1):  -46 y(2,3,1) - v(3,2,1)p + v(3,2,1)n + u(3,2,1)p - u(3,2,1)n >= -46
MCLin9(3,2,1):  -46 y(2,3,1) + u(3,2,1)p - u(3,2,1)n <= 0
MCLin10(3,2,1):  93 y(2,3,1) - v(3,2,1)p + v(3,2,1)n + u(3,2,1)p - u(3,2,1)n <= 93
MCLinV(2,3,2):  - x(2,2) + v(2,3,2)p - v(2,3,2)n + x(3,2) = -10
MCLinV(3,2,2):  x(2,2) + v(3,2,2)p - v(3,2,2)n - x(3,2) = -3
MCLin1(2,3,2):  u(2,3,2)p - u(2,3,2)n >= 0
MCLin2(2,3,2):  85 y(3,2,2) + u(2,3,2)p - u(2,3,2)n >= 0
MCLin3(2,3,2):  -54 y(3,2,2) - v(2,3,2)p + v(2,3,2)n + u(2,3,2)p - u(2,3,2)n >= -54
MCLin4(2,3,2):  -54 y(3,2,2) + u(2,3,2)p - u(2,3,2)n <= 0
MCLin5(2,3,2):  85 y(3,2,2) - v(2,3,2)p + v(2,3,2)n + u(2,3,2)p - u(2,3,2)n <= 85
MCLin6(3,2,2):  u(3,2,2)p - u(3,2,2)n >= 0
MCLin7(3,2,2):  67 y(2,3,2) + u(3,2,2)p - u(3,2,2)n >= 0
MCLin8(3,2,2):  -72 y(2,3,2) - v(3,2,2)p + v(3,2,2)n + u(3,2,2)p - u(3,2,2)n >= -72
MCLin9(3,2,2):  -72 y(2,3,2) + u(3,2,2)p - u(3,2,2)n <= 0
MCLin10(3,2,2):  67 y(2,3,2) - v(3,2,2)p + v(3,2,2)n + u(3,2,2)p - u(3,2,2)n <= 67
MCLinV(2,3,3):  - x(2,3) + v(2,3,3)p - v(2,3,3)n + x(3,3) = -3
MCLinV(3,2,3):  x(2,3) + v(3,2,3)p - v(3,2,3)n - x(3,3) = -9
MCLin1(2,3,3):  u(2,3,3)p - u(2,3,3)n >= 0
MCLin2(2,3,3):  75 y(3,2,3) + u(2,3,3)p - u(2,3,3)n >= 0
MCLin3(2,3,3):  -64 y(3,2,3) - v(2,3,3)p + v(2,3,3)n + u(2,3,3)p - u(2,3,3)n >= -64
MCLin4(2,3,3):  -64 y(3,2,3) + u(2,3,3)p - u(2,3,3)n <= 0
MCLin5(2,3,3):  75 y(3,2,3) - v(2,3,3)p + v(2,3,3)n + u(2,3,3)p - u(2,3,3)n <= 75
MCLin6(3,2,3):  u(3,2,3)p - u(3,2,3)n >= 0
MCLin7(3,2,3):  76 y(2,3,3) + u(3,2,3)p - u(3,2,3)n >= 0
MCLin8(3,2,3):  -63 y(2,3,3) - v(3,2,3)p + v(3,2,3)n + u(3,2,3)p - u(3,2,3)n >= -63
MCLin9(3,2,3):  -63 y(2,3,3) + u(3,2,3)p - u(3,2,3)n <= 0
MCLin10(3,2,3):  76 y(2,3,3) - v(3,2,3)p + v(3,2,3)n + u(3,2,3)p - u(3,2,3)n <= 76
makespan(0):  C - x(0,1) >= 7
makespan(1):  C - x(1,2) >= 8
makespan(2):  C - x(2,0) >= 1
makespan(3):  C - x(3,2) >= 10
cut_clique_1(0,0):  0.29607 x(0,0) + 0.07923 x(1,0) + 0.02423 x(2,0) + 0.02046 x(3,0) >= 1
cut_clique_1(1,0):  0.31739 x(0,0) + 0.07440 x(1,0) + 0.02423 x(2,0) + 0.02060 x(3,0) >= 1
cut_clique_1(2,0):  0.28423 x(0,0) + 0.07223 x(1,0) + 0.02423 x(2,0) + 0.02189 x(3,0) >= 1
cut_clique_1(3,0):  0.31739 x(0,0) + 0.07832 x(1,0) + 0.02423 x(2,0) + 0.01875 x(3,0) >= 1
cut_clique_1(4,0):  0.29607 x(0,0) + 0.09361 x(1,0) + 0.02399 x(2,0) + 0.02046 x(3,0) >= 1
cut_clique_1(5,0):  0.31425 x(0,0) + 0.07440 x(1,0) + 0.02423 x(2,0) + 0.02124 x(3,0) >= 1
cut_clique_1(6,0):  0.30412 x(0,0) + 0.07584 x(1,0) + 0.02423 x(2,0) + 0.02189 x(3,0) >= 1
cut_clique_1(7,0):  0.29607 x(0,0) + 0.07223 x(1,0) + 0.02423 x(2,0) + 0.02189 x(3,0) >= 1
cut_clique_1(8,0):  0.28597 x(0,0) + 0.08266 x(1,0) + 0.02423 x(2,0) + 0.02124 x(3,0) >= 1
cut_clique_1(9,0):  0.29607 x(0,0) + 0.06814 x(1,0) + 0.02423 x(2,0) + 0.02189 x(3,0) >= 1
cut_clique_1(10,0):  0.31739 x(0,0) + 0.08332 x(1,0) + 0.02423 x(2,0) + 0.02060 x(3,0) >= 1
cut_clique_1(11,0):  0.29607 x(0,0) + 0.08008 x(1,0) + 0.02399 x(2,0) + 0.02046 x(3,0) >= 1
cut_clique_1(12,0):  0.43868 x(0,0) + 0.06169 x(1,0) + 0.02775 x(2,0) + 0.01152 x(3,0) >= 1
cut_clique_1(13,0):  0.28311 x(0,0) + 0.07440 x(1,0) + 0.02423 x(2,0) + 0.02124 x(3,0) >= 1
cut_clique_1(14,0):  0.34093 x(0,0) + 0.05464 x(1,0) + 0.02663 x(2,0) + 0.01706 x(3,0) >= 1
cut_clique_1(15,0):  0.29607 x(0,0) + 0.06950 x(1,0) + 0.02399 x(2,0) + 0.02046 x(3,0) >= 1
cut_clique_1(16,0):  0.43868 x(0,0) + 0.06724 x(1,0) + 0.02775 x(2,0) + 0.01152 x(3,0) >= 1
cut_clique_1(17,0):  0.41236 x(0,0) + 0.07531 x(1,0) + 0.02775 x(2,0) + 0.01152 x(3,0) >= 1
cut_clique_1(18,0):  0.44947 x(0,0) + 0.07531 x(1,0) + 0.02775 x(2,0) + 0.01152 x(3,0) >= 1
cut_clique_1(19,0):  0.28892 x(0,0) + 0.07584 x(1,0) + 0.02423 x(2,0) + 0.02189 x(3,0) >= 1
cut_clique_1(20,0):  0.31739 x(0,0) + 0.07039 x(1,0) + 0.02423 x(2,0) + 0.01875 x(3,0) >= 1
cut_clique_1(21,0):  0.29607 x(0,0) + 0.09854 x(1,0) + 0.02399 x(2,0) + 0.02046 x(3,0) >= 1
cut_clique_1(22,0):  0.43868 x(0,0) + 0.06854 x(1,0) + 0.02891 x(2,0) + 0.01152 x(3,0) >= 1
cut_clique_1(23,0):  0.31739 x(0,0) + 0.07440 x(1,0) + 0.02423 x(2,0) + 0.02124 x(3,0) >= 1
cut_clique_1(24,0):  0.40547 x(0,0) + 0.08215 x(1,0) + 0.02359 x(2,0) + 0.01152 x(3,0) >= 1
cut_clique_1(25,0):  0.43868 x(0,0) + 0.07531 x(1,0) + 0.02775 x(2,0) + 0.01152 x(3,0) >= 1
cut_clique_1(26,0):  0.34093 x(0,0) + 0.05737 x(1,0) + 0.02663 x(2,0) + 0.01706 x(3,0) >= 1
cut_clique_1(27,0):  0.31739 x(0,0) + 0.07989 x(1,0) + 0.02423 x(2,0) + 0.01875 x(3,0) >= 1
cut_clique_1(28,0):  0.43598 x(0,0) + 0.07531 x(1,0) + 0.02359 x(2,0) + 0.01152 x(3,0) >= 1
cut_clique_1(29,0):  0.29607 x(0,0) + 0.08519 x(1,0) + 0.02399 x(2,0) + 0.02046 x(3,0) >= 1
cut_clique_1(30,0):  0.28892 x(0,0) + 0.08266 x(1,0) + 0.02423 x(2,0) + 0.02189 x(3,0) >= 1
cut_clique_1(31,0):  0.28892 x(0,0) + 0.08266 x(1,0) + 0.02423 x(2,0) + 0.02124 x(3,0) >= 1
cut_clique_1(32,0):  0.40618 x(0,0) + 0.06854 x(1,0) + 0.02891 x(2,0) + 0.01152 x(3,0) >= 1
cut_clique_1(33,0):  0.31706 x(0,0) + 0.05737 x(1,0) + 0.02663 x(2,0) + 0.01706 x(3,0) >= 1
cut_clique_1(34,0):  0.40952 x(0,0) + 0.08215 x(1,0) + 0.02359 x(2,0) + 0.01152 x(3,0) >= 1
cut_clique_1(35,0):  0.40952 x(0,0) + 0.08461 x(1,0) + 0.02359 x(2,0) + 0.01152 x(3,0) >= 1
cut_clique_1(36,0):  0.29607 x(0,0) + 0.07923 x(1,0) + 0.02399 x(2,0) + 0.02046 x(3,0) >= 1
cut_clique_1(37,0):  0.30412 x(0,0) + 0.07223 x(1,0) + 0.02423 x(2,0) + 0.02189 x(3,0) >= 1
cut_clique_1(38,0):  0.40547 x(0,0) + 0.07606 x(1,0) + 0.02359 x(2,0) + 0.01152 x(3,0) >= 1
cut_clique_1(39,0):  0.31739 x(0,0) + 0.06265 x(1,0) + 0.02423 x(2,0) + 0.01875 x(3,0) >= 1
cut_clique_1(40,0):  0.31739 x(0,0) + 0.08332 x(1,0) + 0.02423 x(2,0) + 0.01875 x(3,0) >= 1
cut_clique_1(41,0):  0.29180 x(0,0) + 0.08266 x(1,0) + 0.02423 x(2,0) + 0.02124 x(3,0) >= 1
cut_clique_1(42,0):  0.31739 x(0,0) + 0.07909 x(1,0) + 0.02423 x(2,0) + 0.01875 x(3,0) >= 1
cut_clique_1(43,0):  0.29607 x(0,0) + 0.06557 x(1,0) + 0.02399 x(2,0) + 0.02046 x(3,0) >= 1
cut_clique_1(44,0):  0.40547 x(0,0) + 0.07531 x(1,0) + 0.02359 x(2,0) + 0.01152 x(3,0) >= 1
cut_clique_1(45,0):  0.29607 x(0,0) + 0.07923 x(1,0) + 0.02423 x(2,0) + 0.02189 x(3,0) >= 1
cut_clique_1(46,0):  0.29607 x(0,0) + 0.07367 x(1,0) + 0.02399 x(2,0) + 0.02046 x(3,0) >= 1
cut_clique_1(47,0):  0.43868 x(0,0) + 0.06854 x(1,0) + 0.02775 x(2,0) + 0.01152 x(3,0) >= 1
cut_clique_1(48,0):  0.44947 x(0,0) + 0.07531 x(1,0) + 0.02359 x(2,0) + 0.01152 x(3,0) >= 1
cut_clique_1(49,0):  0.28597 x(0,0) + 0.07440 x(1,0) + 0.02423 x(2,0) + 0.02124 x(3,0) >= 1
cut_clique_1(0,2):  0.03896 x(0,2) + 0.06011 x(2,2) >= 1
cut_clique_1(1,2):  0.04186 x(0,2) + 0.05872 x(2,2) >= 1
cut_clique_1(2,2):  0.04152 x(0,2) + 0.05872 x(2,2) >= 1
cut_clique_1(3,2):  0.04152 x(0,2) + 0.05637 x(2,2) >= 1
cut_clique_1(4,2):  0.03079 x(0,2) + 0.07064 x(2,2) >= 1
cut_clique_1(5,2):  0.03048 x(0,2) + 0.07064 x(2,2) >= 1
cut_clique_1(6,2):  0.02349 x(0,2) + 0.08142 x(2,2) >= 1
cut_clique_1(7,2):  0.02302 x(0,2) + 0.08142 x(2,2) >= 1
cut_clique_1(8,2):  0.02302 x(0,2) + 0.08061 x(2,2) >= 1
cut_clique_1(9,2):  0.02555 x(0,2) + 0.07945 x(2,2) >= 1
cut_clique_1(10,2):  0.02453 x(0,2) + 0.07945 x(2,2) >= 1
cut_clique_1(11,2):  0.02428 x(0,2) + 0.07945 x(2,2) >= 1
cut_clique_1(12,2):  0.02906 x(0,2) + 0.07379 x(2,2) >= 1
cut_clique_1(13,2):  0.03731 x(0,2) + 0.06219 x(2,2) >= 1
cut_clique_1(14,2):  0.03376 x(0,2) + 0.06951 x(2,2) >= 1
cut_clique_1(15,2):  0.03241 x(0,2) + 0.06951 x(2,2) >= 1
cut_clique_1(16,2):  0.03144 x(0,2) + 0.06951 x(2,2) >= 1
cut_clique_1(17,2):  0.00462 x(0,2) + 0.10507 x(2,2) >= 1
cut_clique_1(18,2):  0.00455 x(0,2) + 0.10507 x(2,2) >= 1
cut_clique_1(19,2):  0.00453 x(0,2) + 0.10557 x(2,2) >= 1
cut_clique_1(20,2):  0.00448 x(0,2) + 0.10557 x(2,2) >= 1
cut_clique_1(21,2):  0.00275 x(0,2) + 0.10751 x(2,2) >= 1
cut_clique_1(0,3):  0.11448 x(1,3) + 0.36844 x(2,3) >= 1
cut_clique_1(1,3):  0.11279 x(1,3) + 0.78124 x(2,3) >= 1
cut_clique_1(2,3):  0.11279 x(1,3) + 0.71874 x(2,3) >= 1
cut_clique_1(3,3):  0.11312 x(1,3) + 0.42350 x(2,3) >= 1
cut_clique_1(4,3):  0.11432 x(1,3) + 0.49802 x(2,3) >= 1
cut_clique_1(5,3):  0.11432 x(1,3) + 0.55429 x(2,3) >= 1
cut_clique_1(6,3):  0.11157 x(1,3) + 0.33270 x(2,3) >= 1
cut_clique_1(7,3):  0.11279 x(1,3) + 0.65406 x(2,3) >= 1
cut_clique_1(8,3):  0.11279 x(1,3) + 0.60827 x(2,3) >= 1
cut_clique_1(9,3):  0.11432 x(1,3) + 0.45274 x(2,3) >= 1
cut_clique_1(10,3):  0.11279 x(1,3) + 0.83111 x(2,3) >= 1
cut_clique_1(11,3):  0.11270 x(1,3) + 0.30281 x(2,3) >= 1
cut_clique_1(12,3):  0.11157 x(1,3) + 0.32606 x(2,3) >= 1
cut_clique_1(13,3):  0.11270 x(1,3) + 0.31542 x(2,3) >= 1
cut_clique_1(14,3):  0.11448 x(1,3) + 0.31686 x(2,3) >= 1
cut_clique_1(15,3):  0.11432 x(1,3) + 0.31174 x(2,3) >= 1
cut_clique_1(16,3):  0.11270 x(1,3) + 0.30624 x(2,3) >= 1
cut_clique_1(17,3):  0.11448 x(1,3) + 0.42350 x(2,3) >= 1
cut_clique_1(18,3):  0.11499 x(1,3) + 0.67954 x(2,3) >= 1
cut_clique_1(19,3):  0.11432 x(1,3) + 0.28085 x(2,3) >= 1
cut_clique_1(20,3):  0.11432 x(1,3) + 0.22855 x(2,3) >= 1
cut_clique_1(21,3):  0.11270 x(1,3) + 0.33652 x(2,3) >= 1
cut_clique_1(22,3):  0.11270 x(1,3) + 0.33270 x(2,3) >= 1
cut_clique_1(23,3):  0.11157 x(1,3) + 0.35214 x(2,3) >= 1
cut_clique_1(24,3):  0.11270 x(1,3) + 0.30523 x(2,3) >= 1
cut_clique_1(25,3):  0.11432 x(1,3) + 0.26888 x(2,3) >= 1
cut_clique_1(26,3):  0.11499 x(1,3) + 0.76352 x(2,3) >= 1
cut_clique_1(27,3):  0.11157 x(1,3) + 0.34654 x(2,3) >= 1
cut_clique_1(28,3):  0.11432 x(1,3) + 0.28954 x(2,3) >= 1
cut_clique_1(29,3):  0.11432 x(1,3) + 0.23312 x(2,3) >= 1
cut_clique_1(30,3):  0.11454 x(1,3) + 0.44309 x(2,3) >= 1
cut_clique_1(31,3):  0.11432 x(1,3) + 0.38119 x(2,3) >= 1
cut_clique_1(32,3):  0.11432 x(1,3) + 0.30906 x(2,3) >= 1
cut_clique_1(33,3):  0.11432 x(1,3) + 0.42312 x(2,3) >= 1
cut_clique_1(34,3):  0.11432 x(1,3) + 0.31537 x(2,3) >= 1
cut_clique_1(35,3):  0.11432 x(1,3) + 0.52292 x(2,3) >= 1
cut_clique_1(36,3):  0.11270 x(1,3) + 0.27253 x(2,3) >= 1
cut_clique_1(37,3):  0.11279 x(1,3) + 0.62652 x(2,3) >= 1
cut_clique_1(38,3):  0.11454 x(1,3) + 0.48297 x(2,3) >= 1
cut_clique_1(39,3):  0.11454 x(1,3) + 0.43870 x(2,3) >= 1
cut_clique_1(40,3):  0.11492 x(1,3) + 0.41824 x(2,3) >= 1
cut_clique_1(41,3):  0.11432 x(1,3) + 0.25177 x(2,3) >= 1
cut_clique_1(42,3):  0.11157 x(1,3) + 0.37679 x(2,3) >= 1
cut_clique_1(43,3):  0.11432 x(1,3) + 0.34604 x(2,3) >= 1
cut_clique_1(44,3):  0.11432 x(1,3) + 0.37372 x(2,3) >= 1
cut_clique_1(45,3):  0.11157 x(1,3) + 0.41824 x(2,3) >= 1
cut_clique_1(46,3):  0.11157 x(1,3) + 0.37262 x(2,3) >= 1
cut_clique_1(47,3):  0.11280 x(1,3) + 0.31640 x(2,3) >= 1
cut_clique_1(48,3):  0.11280 x(1,3) + 0.37223 x(2,3) >= 1
cut_clique_1(49,3):  0.11157 x(1,3) + 0.33614 x(2,3) >= 1
cut_clique_2(0,2):  0.04705 x(0,2) + 0.04350 x(2,2) + 0.00258 x(3,2) >= 1
cut_clique_2(1,2):  0.04845 x(0,2) + 0.04058 x(2,2) + 0.00304 x(3,2) >= 1
cut_clique_2(2,2):  0.05975 x(0,2) + 0.02686 x(2,2) + 0.00302 x(3,2) >= 1
cut_clique_2(3,2):  0.05975 x(0,2) + 0.02686 x(2,2) + 0.00275 x(3,2) >= 1
cut_clique_2(4,2):  0.05915 x(0,2) + 0.02686 x(2,2) + 0.00275 x(3,2) >= 1
cut_clique_2(5,2):  0.05915 x(0,2) + 0.02686 x(2,2) + 0.00259 x(3,2) >= 1
cut_clique_2(6,2):  0.05582 x(0,2) + 0.03086 x(2,2) + 0.00298 x(3,2) >= 1
cut_clique_2(7,2):  0.05082 x(0,2) + 0.03734 x(2,2) + 0.00298 x(3,2) >= 1
cut_clique_2(8,2):  0.05082 x(0,2) + 0.03734 x(2,2) + 0.00286 x(3,2) >= 1
cut_clique_2(9,2):  0.05082 x(0,2) + 0.03734 x(2,2) + 0.00294 x(3,2) >= 1
cut_clique_2(10,2):  0.04990 x(0,2) + 0.03962 x(2,2) + 0.00289 x(3,2) >= 1
cut_clique_2(11,2):  0.04990 x(0,2) + 0.03962 x(2,2) + 0.00286 x(3,2) >= 1
cut_clique_2(12,2):  0.04990 x(0,2) + 0.03962 x(2,2) + 0.00275 x(3,2) >= 1
cut_clique_2(13,2):  0.04940 x(0,2) + 0.03962 x(2,2) + 0.00275 x(3,2) >= 1
cut_clique_2(14,2):  0.04940 x(0,2) + 0.03962 x(2,2) + 0.00267 x(3,2) >= 1
cut_clique_2(15,2):  0.06304 x(0,2) + 0.02230 x(2,2) + 0.00327 x(3,2) >= 1
cut_clique_2(16,2):  0.06304 x(0,2) + 0.02096 x(2,2) + 0.00327 x(3,2) >= 1
cut_clique_2(17,2):  0.06304 x(0,2) + 0.02096 x(2,2) + 0.00337 x(3,2) >= 1
cut_clique_2(18,2):  0.06556 x(0,2) + 0.01787 x(2,2) + 0.00277 x(3,2) >= 1
cut_clique_2(0,3):  0.02229 x(2,3) + 0.11293 x(3,3) >= 1
cut_clique_2(1,3):  0.02097 x(2,3) + 0.11293 x(3,3) >= 1
cut_clique_2(2,3):  0.02097 x(2,3) + 0.12422 x(3,3) >= 1
cut_clique_2(3,3):  0.00678 x(0,3) + 0.13357 x(2,3) + 0.11597 x(3,3) >= 1
cut_clique_2(4,3):  0.00678 x(0,3) + 0.13090 x(2,3) + 0.11597 x(3,3) >= 1
cut_clique_2(5,3):  0.00678 x(0,3) + 0.12435 x(2,3) + 0.11597 x(3,3) >= 1
cut_clique_2(6,3):  0.00678 x(0,3) + 0.12435 x(2,3) + 0.10322 x(3,3) >= 1
cut_clique_2(7,3):  0.00678 x(0,3) + 0.11938 x(2,3) + 0.10322 x(3,3) >= 1
cut_clique_2(8,3):  0.00678 x(0,3) + 0.10147 x(2,3) + 0.10322 x(3,3) >= 1
cut_clique_2(9,3):  0.00658 x(0,3) + 0.10147 x(2,3) + 0.10322 x(3,3) >= 1
cut_clique_2(10,3):  0.00605 x(0,3) + 0.10147 x(2,3) + 0.10322 x(3,3) >= 1
cut_clique_2(11,3):  0.00605 x(0,3) + 0.11365 x(2,3) + 0.10322 x(3,3) >= 1
cut_clique_2(12,3):  0.00605 x(0,3) + 0.11933 x(2,3) + 0.10322 x(3,3) >= 1
cut_clique_2(13,3):  0.00535 x(0,3) + 0.12897 x(2,3) + 0.11044 x(3,3) >= 1
cut_clique_2(14,3):  0.00514 x(0,3) + 0.12897 x(2,3) + 0.11044 x(3,3) >= 1
cut_clique_2(15,3):  0.02229 x(2,3) + 0.11407 x(3,3) >= 1
cut_clique_2(16,3):  0.04170 x(2,3) + 0.12009 x(3,3) >= 1
cut_clique_2(17,3):  0.04629 x(2,3) + 0.12009 x(3,3) >= 1
cut_clique_2(18,3):  0.03033 x(2,3) + 0.11407 x(3,3) >= 1
cut_clique_2(19,3):  0.02346 x(2,3) + 0.11407 x(3,3) >= 1
cut_clique_2(20,3):  0.03370 x(2,3) + 0.12390 x(3,3) >= 1
cut_clique_2(21,3):  0.04212 x(2,3) + 0.12390 x(3,3) >= 1
cut_clique_2(22,3):  0.03917 x(2,3) + 0.12390 x(3,3) >= 1
cut_clique_2(23,3):  0.03682 x(2,3) + 0.12390 x(3,3) >= 1
cut_clique_2(24,3):  0.03829 x(2,3) + 0.12390 x(3,3) >= 1
cut_clique_2(25,3):  0.03370 x(2,3) + 0.12266 x(3,3) >= 1
cut_clique_2(26,3):  0.03370 x(2,3) + 0.11407 x(3,3) >= 1
cut_clique_2(27,3):  0.02760 x(2,3) + 0.11407 x(3,3) >= 1
cut_clique_2(28,3):  0.02140 x(2,3) + 0.11293 x(3,3) >= 1
cut_clique_2(29,3):  0.00361 x(0,3) + 0.07023 x(2,3) + 0.12073 x(3,3) >= 1
cut_clique_2(30,3):  0.07023 x(2,3) + 0.12073 x(3,3) >= 1
cut_clique_2(31,3):  0.07023 x(2,3) + 0.11228 x(3,3) >= 1
cut_clique_2(32,3):  0.06883 x(2,3) + 0.11228 x(3,3) >= 1
cut_clique_2(33,3):  0.06332 x(2,3) + 0.11228 x(3,3) >= 1
cut_clique_2(34,3):  0.05952 x(2,3) + 0.11228 x(3,3) >= 1
cut_clique_2(35,3):  0.05357 x(2,3) + 0.11228 x(3,3) >= 1
cut_clique_2(36,3):  0.04607 x(2,3) + 0.11228 x(3,3) >= 1
cut_clique_2(37,3):  0.04146 x(2,3) + 0.11228 x(3,3) >= 1
cut_clique_2(38,3):  0.03856 x(2,3) + 0.11228 x(3,3) >= 1
cut_clique_2(39,3):  0.03432 x(2,3) + 0.11228 x(3,3) >= 1
cut_clique_2(40,3):  0.03123 x(2,3) + 0.11228 x(3,3) >= 1
cut_clique_2(41,3):  0.02936 x(2,3) + 0.11228 x(3,3) >= 1
cut_clique_2(42,3):  0.03024 x(2,3) + 0.11228 x(3,3) >= 1
cut_clique_2(43,3):  0.02963 x(2,3) + 0.11228 x(3,3) >= 1
cut_clique_2(44,3):  0.03408 x(2,3) + 0.11228 x(3,3) >= 1
cut_clique_2(45,3):  0.03783 x(2,3) + 0.11228 x(3,3) >= 1
cut_clique_2(46,3):  0.03783 x(2,3) + 0.12014 x(3,3) >= 1
cut_clique_2(47,3):  0.03934 x(2,3) + 0.12014 x(3,3) >= 1
cut_clique_2(48,3):  0.03934 x(2,3) + 0.12254 x(3,3) >= 1
cut_clique_2(49,3):  0.04170 x(2,3) + 0.12254 x(3,3) >= 1
Bounds
 0 <= C <= 94
 0 <= x(0,0) <= 70
 0 <= y(0,1,0) <= 1
 0 <= y(1,0,0) <= 1
 0 <= v(0,1,0)p <= 69
 0 <= v(0,1,0)n <= 74
 0 <= v(1,0,0)p <= 63
 0 <= v(1,0,0)n <= 80
 0 <= u(0,1,0)p <= 940
 0 <= u(0,1,0)n <= 940
 0 <= u(1,0,0)p <= 940
 0 <= u(1,0,0)n <= 940
 0 <= y(0,2,0) <= 1
 0 <= y(2,0,0) <= 1
 0 <= v(0,2,0)p <= 50
 0 <= v(0,2,0)n <= 94
 0 <= v(2,0,0)p <= 83
 0 <= v(2,0,0)n <= 61
 0 <= u(0,2,0)p <= 940
 0 <= u(0,2,0)n <= 940
 0 <= u(2,0,0)p <= 940
 0 <= u(2,0,0)n <= 940
 0 <= y(0,3,0) <= 1
 0 <= y(3,0,0) <= 1
 0 <= v(0,3,0)p <= 51
 0 <= v(0,3,0)n <= 84
 0 <= v(3,0,0)p <= 65
 0 <= v(3,0,0)n <= 70
 0 <= u(0,3,0)p <= 940
 0 <= u(0,3,0)n <= 940
 0 <= u(3,0,0)p <= 940
 0 <= u(3,0,0)n <= 940
 0 <= x(1,0) <= 73
 0 <= y(1,2,0) <= 1
 0 <= y(2,1,0) <= 1
 0 <= v(1,2,0)p <= 53
 0 <= v(1,2,0)n <= 94
 0 <= v(2,1,0)p <= 92
 0 <= v(2,1,0)n <= 55
 0 <= u(1,2,0)p <= 940
 0 <= u(1,2,0)n <= 940
 0 <= u(2,1,0)p <= 940
 0 <= u(2,1,0)n <= 940
 0 <= y(1,3,0) <= 1
 0 <= y(3,1,0) <= 1
 0 <= v(1,3,0)p <= 54
 0 <= v(1,3,0)n <= 84
 0 <= v(3,1,0)p <= 74
 0 <= v(3,1,0)n <= 64
 0 <= u(1,3,0)p <= 940
 0 <= u(1,3,0)n <= 940
 0 <= u(3,1,0)p <= 940
 0 <= u(3,1,0)n <= 940
 19 <= x(2,0) <= 93
 0 <= y(2,3,0) <= 1
 0 <= y(3,2,0) <= 1
 0 <= v(2,3,0)p <= 74
 0 <= v(2,3,0)n <= 65
 0 <= v(3,2,0)p <= 55
 0 <= v(3,2,0)n <= 84
 0 <= u(2,3,0)p <= 940
 0 <= u(2,3,0)n <= 940
 0 <= u(3,2,0)p <= 940
 0 <= u(3,2,0)n <= 940
 10 <= x(3,0) <= 75
 17 <= x(0,1) <= 87
 0 <= y(0,1,1) <= 1
 0 <= y(1,0,1) <= 1
 0 <= v(0,1,1)p <= 74
 0 <= v(0,1,1)n <= 69
 0 <= v(1,0,1)p <= 57
 0 <= v(1,0,1)n <= 86
 0 <= u(0,1,1)p <= 940
 0 <= u(0,1,1)n <= 940
 0 <= u(1,0,1)p <= 940
 0 <= u(1,0,1)n <= 940
 0 <= y(0,2,1) <= 1
 0 <= y(2,0,1) <= 1
 0 <= v(0,2,1)p <= 68
 0 <= v(0,2,1)n <= 76
 0 <= v(2,0,1)p <= 62
 0 <= v(2,0,1)n <= 82
 0 <= u(0,2,1)p <= 940
 0 <= u(0,2,1)n <= 940
 0 <= u(2,0,1)p <= 940
 0 <= u(2,0,1)n <= 940
 0 <= y(0,3,1) <= 1
 0 <= y(3,0,1) <= 1
 0 <= v(0,3,1)p <= 80
 0 <= v(0,3,1)n <= 55
 0 <= v(3,0,1)p <= 41
 0 <= v(3,0,1)n <= 94
 0 <= u(0,3,1)p <= 940
 0 <= u(0,3,1)n <= 940
 0 <= u(3,0,1)p <= 940
 0 <= u(3,0,1)n <= 940
 8 <= x(1,1) <= 81
 0 <= y(1,2,1) <= 1
 0 <= y(2,1,1) <= 1
 0 <= v(1,2,1)p <= 62
 0 <= v(1,2,1)n <= 85
 0 <= v(2,1,1)p <= 73
 0 <= v(2,1,1)n <= 74
 0 <= u(1,2,1)p <= 940
 0 <= u(1,2,1)n <= 940
 0 <= u(2,1,1)p <= 940
 0 <= u(2,1,1)n <= 940
 0 <= y(1,3,1) <= 1
 0 <= y(3,1,1) <= 1
 0 <= v(1,3,1)p <= 74
 0 <= v(1,3,1)n <= 64
 0 <= v(3,1,1)p <= 52
 0 <= v(3,1,1)n <= 86
 0 <= u(1,3,1)p <= 940
 0 <= u(1,3,1)n <= 940
 0 <= u(3,1,1)p <= 940
 0 <= u(3,1,1)n <= 940
 12 <= x(2,1) <= 86
 0 <= y(2,3,1) <= 1
 0 <= y(3,2,1) <= 1
 0 <= v(2,3,1)p <= 79
 0 <= v(2,3,1)n <= 60
 0 <= v(3,2,1)p <= 46
 0 <= v(3,2,1)n <= 93
 0 <= u(2,3,1)p <= 940
 0 <= u(2,3,1)n <= 940
 0 <= u(3,2,1)p <= 940
 0 <= u(3,2,1)n <= 940
 0 <= x(3,1) <= 65
 11 <= x(0,2) <= 81
 0 <= y(0,1,2) <= 1
 0 <= y(1,0,2) <= 1
 0 <= v(0,1,2)p <= 60
 0 <= v(0,1,2)n <= 83
 0 <= v(1,0,2)p <= 69
 0 <= v(1,0,2)n <= 74
 0 <= u(0,1,2)p <= 940
 0 <= u(0,1,2)n <= 940
 0 <= u(1,0,2)p <= 940
 0 <= u(1,0,2)n <= 940
 0 <= y(0,2,2) <= 1
 0 <= y(2,0,2) <= 1
 0 <= v(0,2,2)p <= 69
 0 <= v(0,2,2)n <= 75
 0 <= v(2,0,2)p <= 66
 0 <= v(2,0,2)n <= 78
 0 <= u(0,2,2)p <= 940
 0 <= u(0,2,2)n <= 940
 0 <= u(2,0,2)p <= 940
 0 <= u(2,0,2)n <= 940
 0 <= y(0,3,2) <= 1
 0 <= y(3,0,2) <= 1
 0 <= v(0,3,2)p <= 52
 0 <= v(0,3,2)n <= 83
 0 <= v(3,0,2)p <= 67
 0 <= v(3,0,2)n <= 68
 0 <= u(0,3,2)p <= 940
 0 <= u(0,3,2)n <= 940
 0 <= u(3,0,2)p <= 940
 0 <= u(3,0,2)n <= 940
 13 <= x(1,2) <= 86
 0 <= y(1,2,2) <= 1
 0 <= y(2,1,2) <= 1
 0 <= v(1,2,2)p <= 74
 0 <= v(1,2,2)n <= 73
 0 <= v(2,1,2)p <= 62
 0 <= v(2,1,2)n <= 85
 0 <= u(1,2,2)p <= 940
 0 <= u(1,2,2)n <= 940
 0 <= u(2,1,2)p <= 940
 0 <= u(2,1,2)n <= 940
 0 <= y(1,3,2) <= 1
 0 <= y(3,1,2) <= 1
 0 <= v(1,3,2)p <= 57
 0 <= v(1,3,2)n <= 81
 0 <= v(3,1,2)p <= 63
 0 <= v(3,1,2)n <= 75
 0 <= u(1,3,2)p <= 940
 0 <= u(1,3,2)n <= 940
 0 <= u(3,1,2)p <= 940
 0 <= u(3,1,2)n <= 940
 9 <= x(2,2) <= 83
 0 <= y(2,3,2) <= 1
 0 <= y(3,2,2) <= 1
 0 <= v(2,3,2)p <= 54
 0 <= v(2,3,2)n <= 85
 0 <= v(3,2,2)p <= 72
 0 <= v(3,2,2)n <= 67
 0 <= u(2,3,2)p <= 940
 0 <= u(2,3,2)n <= 940
 0 <= u(3,2,2)p <= 940
 0 <= u(3,2,2)n <= 940
 19 <= x(3,2) <= 84
 10 <= x(0,3) <= 80
 0 <= y(0,1,3) <= 1
 0 <= y(1,0,3) <= 1
 0 <= v(0,1,3)p <= 72
 0 <= v(0,1,3)n <= 71
 0 <= v(1,0,3)p <= 63
 0 <= v(1,0,3)n <= 80
 0 <= u(0,1,3)p <= 940
 0 <= u(0,1,3)n <= 940
 0 <= u(1,0,3)p <= 940
 0 <= u(1,0,3)n <= 940
 0 <= y(0,2,3) <= 1
 0 <= y(2,0,3) <= 1
 0 <= v(0,2,3)p <= 71
 0 <= v(0,2,3)n <= 73
 0 <= v(2,0,3)p <= 63
 0 <= v(2,0,3)n <= 81
 0 <= u(0,2,3)p <= 940
 0 <= u(0,2,3)n <= 940
 0 <= u(2,0,3)p <= 940
 0 <= u(2,0,3)n <= 940
 0 <= y(0,3,3) <= 1
 0 <= y(3,0,3) <= 1
 0 <= v(0,3,3)p <= 70
 0 <= v(0,3,3)n <= 65
 0 <= v(3,0,3)p <= 61
 0 <= v(3,0,3)n <= 74
 0 <= u(0,3,3)p <= 940
 0 <= u(0,3,3)n <= 940
 0 <= u(3,0,3)p <= 940
 0 <= u(3,0,3)n <= 940
 1 <= x(1,3) <= 74
 0 <= y(1,2,3) <= 1
 0 <= y(2,1,3) <= 1
 0 <= v(1,2,3)p <= 65
 0 <= v(1,2,3)n <= 82
 0 <= v(2,1,3)p <= 66
 0 <= v(2,1,3)n <= 81
 0 <= u(1,2,3)p <= 940
 0 <= u(1,2,3)n <= 940
 0 <= u(2,1,3)p <= 940
 0 <= u(2,1,3)n <= 940
 0 <= y(1,3,3) <= 1
 0 <= y(3,1,3) <= 1
 0 <= v(1,3,3)p <= 64
 0 <= v(1,3,3)n <= 74
 0 <= v(3,1,3)p <= 64
 0 <= v(3,1,3)n <= 74
 0 <= u(1,3,3)p <= 940
 0 <= u(1,3,3)n <= 940
 0 <= u(3,1,3)p <= 940
 0 <= u(3,1,3)n <= 940
 0 <= x(2,3) <= 74
 0 <= y(2,3,3) <= 1
 0 <= y(3,2,3) <= 1
 0 <= v(2,3,3)p <= 64
 0 <= v(2,3,3)n <= 75
 0 <= v(3,2,3)p <= 63
 0 <= v(3,2,3)n <= 76
 0 <= u(2,3,3)p <= 940
 0 <= u(2,3,3)n <= 940
 0 <= u(3,2,3)p <= 940
 0 <= u(3,2,3)n <= 940
 7 <= x(3,3) <= 72
End
